c Reduced graph for GEOM20b_1 generated by Cyril Grelier
p edge 15 25
e 1 2
e 1 3
e 1 5
e 1 6
e 1 10
e 1 11
e 2 3
e 2 4
e 2 7
e 2 9
e 3 5
e 3 7
e 4 9
e 4 10
e 4 11
e 5 6
e 5 8
e 6 12
e 6 15
e 7 9
e 8 13
e 8 14
e 10 11
e 12 15
e 13 14
